lab3/P3b-pulp.lp
\* P3b *\
Minimize
OBJ: z
Subject To
_C1: xhk_0_0 + xhk_0_1 + xhk_0_10 + xhk_0_11 + xhk_0_12 + xhk_0_2 + xhk_0_3
 + xhk_0_4 + xhk_0_5 + xhk_0_6 + xhk_0_7 + xhk_0_8 + xhk_0_9 = 1
_C10: xhk_9_0 + xhk_9_1 + xhk_9_10 + xhk_9_11 + xhk_9_12 + xhk_9_2 + xhk_9_3
 + xhk_9_4 + xhk_9_5 + xhk_9_6 + xhk_9_7 + xhk_9_8 + xhk_9_9 = 1
_C11: xhk_10_0 + xhk_10_1 + xhk_10_10 + xhk_10_11 + xhk_10_12 + xhk_10_2
 + xhk_10_3 + xhk_10_4 + xhk_10_5 + xhk_10_6 + xhk_10_7 + xhk_10_8 + xhk_10_9
 = 1
_C12: xhk_11_0 + xhk_11_1 + xhk_11_10 + xhk_11_11 + xhk_11_12 + xhk_11_2
 + xhk_11_3 + xhk_11_4 + xhk_11_5 + xhk_11_6 + xhk_11_7 + xhk_11_8 + xhk_11_9
 = 1
_C13: xhk_12_0 + xhk_12_1 + xhk_12_10 + xhk_12_11 + xhk_12_12 + xhk_12_2
 + xhk_12_3 + xhk_12_4 + xhk_12_5 + xhk_12_6 + xhk_12_7 + xhk_12_8 + xhk_12_9
 = 1
_C14: xhk_13_0 + xhk_13_1 + xhk_13_10 + xhk_13_11 + xhk_13_12 + xhk_13_2
 + xhk_13_3 + xhk_13_4 + xhk_13_5 + xhk_13_6 + xhk_13_7 + xhk_13_8 + xhk_13_9
 = 1
_C15: xhk_14_0 + xhk_14_1 + xhk_14_10 + xhk_14_11 + xhk_14_12 + xhk_14_2
 + xhk_14_3 + xhk_14_4 + xhk_14_5 + xhk_14_6 + xhk_14_7 + xhk_14_8 + xhk_14_9
 = 1
_C16: xhk_15_0 + xhk_15_1 + xhk_15_10 + xhk_15_11 + xhk_15_12 + xhk_15_2
 + xhk_15_3 + xhk_15_4 + xhk_15_5 + xhk_15_6 + xhk_15_7 + xhk_15_8 + xhk_15_9
 = 1
_C17: xhk_16_0 + xhk_16_1 + xhk_16_10 + xhk_16_11 + xhk_16_12 + xhk_16_2
 + xhk_16_3 + xhk_16_4 + xhk_16_5 + xhk_16_6 + xhk_16_7 + xhk_16_8 + xhk_16_9
 = 1
_C18: xhk_17_0 + xhk_17_1 + xhk_17_10 + xhk_17_11 + xhk_17_12 + xhk_17_2
 + xhk_17_3 + xhk_17_4 + xhk_17_5 + xhk_17_6 + xhk_17_7 + xhk_17_8 + xhk_17_9
 = 1
_C19: xhk_0_0 + xhk_0_1 + xhk_0_2 + xhk_0_3 + xhk_0_4 + xhk_0_5 + xhk_1_0
 + xhk_1_1 + xhk_1_2 + xhk_1_3 + xhk_1_4 + xhk_1_5 + xhk_2_0 + xhk_2_1
 + xhk_2_2 + xhk_2_3 + xhk_2_4 + xhk_2_5 + xhk_3_0 + xhk_3_1 + xhk_3_2
 + xhk_3_3 + xhk_3_4 + xhk_3_5 + xhk_4_0 + xhk_4_1 + xhk_4_2 + xhk_4_3
 + xhk_4_4 + xhk_4_5 + xhk_5_0 + xhk_5_1 + xhk_5_2 + xhk_5_3 + xhk_5_4
 + xhk_5_5 + xhk_6_0 + xhk_6_1 + xhk_6_2 + xhk_6_3 + xhk_6_4 + xhk_6_5
 - 7 xtc_0_0 = 0
_C2: xhk_1_0 + xhk_1_1 + xhk_1_10 + xhk_1_11 + xhk_1_12 + xhk_1_2 + xhk_1_3
 + xhk_1_4 + xhk_1_5 + xhk_1_6 + xhk_1_7 + xhk_1_8 + xhk_1_9 = 1
_C20: xhk_0_6 + xhk_0_7 + xhk_0_8 + xhk_1_6 + xhk_1_7 + xhk_1_8 + xhk_2_6
 + xhk_2_7 + xhk_2_8 + xhk_3_6 + xhk_3_7 + xhk_3_8 + xhk_4_6 + xhk_4_7
 + xhk_4_8 + xhk_5_6 + xhk_5_7 + xhk_5_8 + xhk_6_6 + xhk_6_7 + xhk_6_8
 - 7 xtc_0_1 = 0
_C21: xhk_0_10 + xhk_0_11 + xhk_0_12 + xhk_0_9 + xhk_1_10 + xhk_1_11
 + xhk_1_12 + xhk_1_9 + xhk_2_10 + xhk_2_11 + xhk_2_12 + xhk_2_9 + xhk_3_10
 + xhk_3_11 + xhk_3_12 + xhk_3_9 + xhk_4_10 + xhk_4_11 + xhk_4_12 + xhk_4_9
 + xhk_5_10 + xhk_5_11 + xhk_5_12 + xhk_5_9 + xhk_6_10 + xhk_6_11 + xhk_6_12
 + xhk_6_9 - 7 xtc_0_2 = 0
_C22: xhk_10_0 + xhk_10_1 + xhk_10_2 + xhk_10_3 + xhk_10_4 + xhk_10_5
 + xhk_11_0 + xhk_11_1 + xhk_11_2 + xhk_11_3 + xhk_11_4 + xhk_11_5 + xhk_12_0
 + xhk_12_1 + xhk_12_2 + xhk_12_3 + xhk_12_4 + xhk_12_5 + xhk_7_0 + xhk_7_1
 + xhk_7_2 + xhk_7_3 + xhk_7_4 + xhk_7_5 + xhk_8_0 + xhk_8_1 + xhk_8_2
 + xhk_8_3 + xhk_8_4 + xhk_8_5 + xhk_9_0 + xhk_9_1 + xhk_9_2 + xhk_9_3
 + xhk_9_4 + xhk_9_5 - 6 xtc_1_0 = 0
_C23: xhk_10_6 + xhk_10_7 + xhk_10_8 + xhk_11_6 + xhk_11_7 + xhk_11_8
 + xhk_12_6 + xhk_12_7 + xhk_12_8 + xhk_7_6 + xhk_7_7 + xhk_7_8 + xhk_8_6
 + xhk_8_7 + xhk_8_8 + xhk_9_6 + xhk_9_7 + xhk_9_8 - 6 xtc_1_1 = 0
_C24: xhk_10_10 + xhk_10_11 + xhk_10_12 + xhk_10_9 + xhk_11_10 + xhk_11_11
 + xhk_11_12 + xhk_11_9 + xhk_12_10 + xhk_12_11 + xhk_12_12 + xhk_12_9
 + xhk_7_10 + xhk_7_11 + xhk_7_12 + xhk_7_9 + xhk_8_10 + xhk_8_11 + xhk_8_12
 + xhk_8_9 + xhk_9_10 + xhk_9_11 + xhk_9_12 + xhk_9_9 - 6 xtc_1_2 = 0
_C25: xhk_13_0 + xhk_13_1 + xhk_13_2 + xhk_13_3 + xhk_13_4 + xhk_13_5
 - xtc_2_0 = 0
_C26: xhk_13_6 + xhk_13_7 + xhk_13_8 - xtc_2_1 = 0
_C27: xhk_13_10 + xhk_13_11 + xhk_13_12 + xhk_13_9 - xtc_2_2 = 0
_C28: xhk_14_0 + xhk_14_1 + xhk_14_2 + xhk_14_3 + xhk_14_4 + xhk_14_5
 + xhk_15_0 + xhk_15_1 + xhk_15_2 + xhk_15_3 + xhk_15_4 + xhk_15_5 + xhk_16_0
 + xhk_16_1 + xhk_16_2 + xhk_16_3 + xhk_16_4 + xhk_16_5 + xhk_17_0 + xhk_17_1
 + xhk_17_2 + xhk_17_3 + xhk_17_4 + xhk_17_5 - 4 xtc_3_0 = 0
_C29: xhk_14_6 + xhk_14_7 + xhk_14_8 + xhk_15_6 + xhk_15_7 + xhk_15_8
 + xhk_16_6 + xhk_16_7 + xhk_16_8 + xhk_17_6 + xhk_17_7 + xhk_17_8 - 4 xtc_3_1
 = 0
_C3: xhk_2_0 + xhk_2_1 + xhk_2_10 + xhk_2_11 + xhk_2_12 + xhk_2_2 + xhk_2_3
 + xhk_2_4 + xhk_2_5 + xhk_2_6 + xhk_2_7 + xhk_2_8 + xhk_2_9 = 1
_C30: xhk_14_10 + xhk_14_11 + xhk_14_12 + xhk_14_9 + xhk_15_10 + xhk_15_11
 + xhk_15_12 + xhk_15_9 + xhk_16_10 + xhk_16_11 + xhk_16_12 + xhk_16_9
 + xhk_17_10 + xhk_17_11 + xhk_17_12 + xhk_17_9 - 4 xtc_3_2 = 0
_C31: 209.881515169 xhk_0_0 + 155.097838051 xhk_10_0 + 220.080371186 xhk_11_0
 + 349.478289126 xhk_12_0 + 124.621793987 xhk_13_0 + 166.113385913 xhk_14_0
 + 260.359666361 xhk_15_0 + 225.389152721 xhk_16_0 + 254.368360617 xhk_17_0
 + 217.507651392 xhk_1_0 + 194.831889111 xhk_2_0 + 206.925047369 xhk_3_0
 + 121.7097193 xhk_4_0 + 208.899845822 xhk_5_0 + 132.744998365 xhk_6_0
 + 208.42354152 xhk_7_0 + 357.834398157 xhk_8_0 + 197.599124606 xhk_9_0
 <= 618.283658307
_C32: 209.881515169 xhk_0_1 + 155.097838051 xhk_10_1 + 220.080371186 xhk_11_1
 + 349.478289126 xhk_12_1 + 124.621793987 xhk_13_1 + 166.113385913 xhk_14_1
 + 260.359666361 xhk_15_1 + 225.389152721 xhk_16_1 + 254.368360617 xhk_17_1
 + 217.507651392 xhk_1_1 + 194.831889111 xhk_2_1 + 206.925047369 xhk_3_1
 + 121.7097193 xhk_4_1 + 208.899845822 xhk_5_1 + 132.744998365 xhk_6_1
 + 208.42354152 xhk_7_1 + 357.834398157 xhk_8_1 + 197.599124606 xhk_9_1
 <= 618.283658307
_C33: 209.881515169 xhk_0_2 + 155.097838051 xhk_10_2 + 220.080371186 xhk_11_2
 + 349.478289126 xhk_12_2 + 124.621793987 xhk_13_2 + 166.113385913 xhk_14_2
 + 260.359666361 xhk_15_2 + 225.389152721 xhk_16_2 + 254.368360617 xhk_17_2
 + 217.507651392 xhk_1_2 + 194.831889111 xhk_2_2 + 206.925047369 xhk_3_2
 + 121.7097193 xhk_4_2 + 208.899845822 xhk_5_2 + 132.744998365 xhk_6_2
 + 208.42354152 xhk_7_2 + 357.834398157 xhk_8_2 + 197.599124606 xhk_9_2
 <= 618.283658307
_C34: 209.881515169 xhk_0_3 + 155.097838051 xhk_10_3 + 220.080371186 xhk_11_3
 + 349.478289126 xhk_12_3 + 124.621793987 xhk_13_3 + 166.113385913 xhk_14_3
 + 260.359666361 xhk_15_3 + 225.389152721 xhk_16_3 + 254.368360617 xhk_17_3
 + 217.507651392 xhk_1_3 + 194.831889111 xhk_2_3 + 206.925047369 xhk_3_3
 + 121.7097193 xhk_4_3 + 208.899845822 xhk_5_3 + 132.744998365 xhk_6_3
 + 208.42354152 xhk_7_3 + 357.834398157 xhk_8_3 + 197.599124606 xhk_9_3
 <= 618.283658307
_C35: 209.881515169 xhk_0_4 + 155.097838051 xhk_10_4 + 220.080371186 xhk_11_4
 + 349.478289126 xhk_12_4 + 124.621793987 xhk_13_4 + 166.113385913 xhk_14_4
 + 260.359666361 xhk_15_4 + 225.389152721 xhk_16_4 + 254.368360617 xhk_17_4
 + 217.507651392 xhk_1_4 + 194.831889111 xhk_2_4 + 206.925047369 xhk_3_4
 + 121.7097193 xhk_4_4 + 208.899845822 xhk_5_4 + 132.744998365 xhk_6_4
 + 208.42354152 xhk_7_4 + 357.834398157 xhk_8_4 + 197.599124606 xhk_9_4
 <= 618.283658307
_C36: 209.881515169 xhk_0_5 + 155.097838051 xhk_10_5 + 220.080371186 xhk_11_5
 + 349.478289126 xhk_12_5 + 124.621793987 xhk_13_5 + 166.113385913 xhk_14_5
 + 260.359666361 xhk_15_5 + 225.389152721 xhk_16_5 + 254.368360617 xhk_17_5
 + 217.507651392 xhk_1_5 + 194.831889111 xhk_2_5 + 206.925047369 xhk_3_5
 + 121.7097193 xhk_4_5 + 208.899845822 xhk_5_5 + 132.744998365 xhk_6_5
 + 208.42354152 xhk_7_5 + 357.834398157 xhk_8_5 + 197.599124606 xhk_9_5
 <= 618.283658307
_C37: 209.881515169 xhk_0_6 + 155.097838051 xhk_10_6 + 220.080371186 xhk_11_6
 + 349.478289126 xhk_12_6 + 124.621793987 xhk_13_6 + 166.113385913 xhk_14_6
 + 260.359666361 xhk_15_6 + 225.389152721 xhk_16_6 + 254.368360617 xhk_17_6
 + 217.507651392 xhk_1_6 + 194.831889111 xhk_2_6 + 206.925047369 xhk_3_6
 + 121.7097193 xhk_4_6 + 208.899845822 xhk_5_6 + 132.744998365 xhk_6_6
 + 208.42354152 xhk_7_6 + 357.834398157 xhk_8_6 + 197.599124606 xhk_9_6
 <= 600.803158917
_C38: 209.881515169 xhk_0_7 + 155.097838051 xhk_10_7 + 220.080371186 xhk_11_7
 + 349.478289126 xhk_12_7 + 124.621793987 xhk_13_7 + 166.113385913 xhk_14_7
 + 260.359666361 xhk_15_7 + 225.389152721 xhk_16_7 + 254.368360617 xhk_17_7
 + 217.507651392 xhk_1_7 + 194.831889111 xhk_2_7 + 206.925047369 xhk_3_7
 + 121.7097193 xhk_4_7 + 208.899845822 xhk_5_7 + 132.744998365 xhk_6_7
 + 208.42354152 xhk_7_7 + 357.834398157 xhk_8_7 + 197.599124606 xhk_9_7
 <= 600.803158917
_C39: 209.881515169 xhk_0_8 + 155.097838051 xhk_10_8 + 220.080371186 xhk_11_8
 + 349.478289126 xhk_12_8 + 124.621793987 xhk_13_8 + 166.113385913 xhk_14_8
 + 260.359666361 xhk_15_8 + 225.389152721 xhk_16_8 + 254.368360617 xhk_17_8
 + 217.507651392 xhk_1_8 + 194.831889111 xhk_2_8 + 206.925047369 xhk_3_8
 + 121.7097193 xhk_4_8 + 208.899845822 xhk_5_8 + 132.744998365 xhk_6_8
 + 208.42354152 xhk_7_8 + 357.834398157 xhk_8_8 + 197.599124606 xhk_9_8
 <= 600.803158917
_C4: xhk_3_0 + xhk_3_1 + xhk_3_10 + xhk_3_11 + xhk_3_12 + xhk_3_2 + xhk_3_3
 + xhk_3_4 + xhk_3_5 + xhk_3_6 + xhk_3_7 + xhk_3_8 + xhk_3_9 = 1
_C40: 209.881515169 xhk_0_9 + 155.097838051 xhk_10_9 + 220.080371186 xhk_11_9
 + 349.478289126 xhk_12_9 + 124.621793987 xhk_13_9 + 166.113385913 xhk_14_9
 + 260.359666361 xhk_15_9 + 225.389152721 xhk_16_9 + 254.368360617 xhk_17_9
 + 217.507651392 xhk_1_9 + 194.831889111 xhk_2_9 + 206.925047369 xhk_3_9
 + 121.7097193 xhk_4_9 + 208.899845822 xhk_5_9 + 132.744998365 xhk_6_9
 + 208.42354152 xhk_7_9 + 357.834398157 xhk_8_9 + 197.599124606 xhk_9_9
 <= 493.286505253
_C41: 209.881515169 xhk_0_10 + 155.097838051 xhk_10_10
 + 220.080371186 xhk_11_10 + 349.478289126 xhk_12_10 + 124.621793987 xhk_13_10
 + 166.113385913 xhk_14_10 + 260.359666361 xhk_15_10 + 225.389152721 xhk_16_10
 + 254.368360617 xhk_17_10 + 217.507651392 xhk_1_10 + 194.831889111 xhk_2_10
 + 206.925047369 xhk_3_10 + 121.7097193 xhk_4_10 + 208.899845822 xhk_5_10
 + 132.744998365 xhk_6_10 + 208.42354152 xhk_7_10 + 357.834398157 xhk_8_10
 + 197.599124606 xhk_9_10 <= 493.286505253
_C42: 209.881515169 xhk_0_11 + 155.097838051 xhk_10_11
 + 220.080371186 xhk_11_11 + 349.478289126 xhk_12_11 + 124.621793987 xhk_13_11
 + 166.113385913 xhk_14_11 + 260.359666361 xhk_15_11 + 225.389152721 xhk_16_11
 + 254.368360617 xhk_17_11 + 217.507651392 xhk_1_11 + 194.831889111 xhk_2_11
 + 206.925047369 xhk_3_11 + 121.7097193 xhk_4_11 + 208.899845822 xhk_5_11
 + 132.744998365 xhk_6_11 + 208.42354152 xhk_7_11 + 357.834398157 xhk_8_11
 + 197.599124606 xhk_9_11 <= 493.286505253
_C43: 209.881515169 xhk_0_12 + 155.097838051 xhk_10_12
 + 220.080371186 xhk_11_12 + 349.478289126 xhk_12_12 + 124.621793987 xhk_13_12
 + 166.113385913 xhk_14_12 + 260.359666361 xhk_15_12 + 225.389152721 xhk_16_12
 + 254.368360617 xhk_17_12 + 217.507651392 xhk_1_12 + 194.831889111 xhk_2_12
 + 206.925047369 xhk_3_12 + 121.7097193 xhk_4_12 + 208.899845822 xhk_5_12
 + 132.744998365 xhk_6_12 + 208.42354152 xhk_7_12 + 357.834398157 xhk_8_12
 + 197.599124606 xhk_9_12 <= 493.286505253
_C44: - 0.0565763821479 xhk_0_0 - 0.0565763821479 xhk_0_1
 - 0.0565763821479 xhk_0_2 - 0.0565763821479 xhk_0_3 - 0.0565763821479 xhk_0_4
 - 0.0565763821479 xhk_0_5 - 0.0418087059683 xhk_10_0
 - 0.0418087059683 xhk_10_1 - 0.0418087059683 xhk_10_2
 - 0.0418087059683 xhk_10_3 - 0.0418087059683 xhk_10_4
 - 0.0418087059683 xhk_10_5 - 0.0593256208077 xhk_11_0
 - 0.0593256208077 xhk_11_1 - 0.0593256208077 xhk_11_2
 - 0.0593256208077 xhk_11_3 - 0.0593256208077 xhk_11_4
 - 0.0593256208077 xhk_11_5 - 0.0942065680346 xhk_12_0
 - 0.0942065680346 xhk_12_1 - 0.0942065680346 xhk_12_2
 - 0.0942065680346 xhk_12_3 - 0.0942065680346 xhk_12_4
 - 0.0942065680346 xhk_12_5 - 0.0335934788487 xhk_13_0
 - 0.0335934788487 xhk_13_1 - 0.0335934788487 xhk_13_2
 - 0.0335934788487 xhk_13_3 - 0.0335934788487 xhk_13_4
 - 0.0335934788487 xhk_13_5 - 0.0447780948871 xhk_14_0
 - 0.0447780948871 xhk_14_1 - 0.0447780948871 xhk_14_2
 - 0.0447780948871 xhk_14_3 - 0.0447780948871 xhk_14_4
 - 0.0447780948871 xhk_14_5 - 0.0701834459699 xhk_15_0
 - 0.0701834459699 xhk_15_1 - 0.0701834459699 xhk_15_2
 - 0.0701834459699 xhk_15_3 - 0.0701834459699 xhk_15_4
 - 0.0701834459699 xhk_15_5 - 0.0607566741934 xhk_16_0
 - 0.0607566741934 xhk_16_1 - 0.0607566741934 xhk_16_2
 - 0.0607566741934 xhk_16_3 - 0.0607566741934 xhk_16_4
 - 0.0607566741934 xhk_16_5 - 0.0685684090141 xhk_17_0
 - 0.0685684090141 xhk_17_1 - 0.0685684090141 xhk_17_2
 - 0.0685684090141 xhk_17_3 - 0.0685684090141 xhk_17_4
 - 0.0685684090141 xhk_17_5 - 0.0586321096231 xhk_1_0
 - 0.0586321096231 xhk_1_1 - 0.0586321096231 xhk_1_2 - 0.0586321096231 xhk_1_3
 - 0.0586321096231 xhk_1_4 - 0.0586321096231 xhk_1_5 - 0.0525195532539 xhk_2_0
 - 0.0525195532539 xhk_2_1 - 0.0525195532539 xhk_2_2 - 0.0525195532539 xhk_2_3
 - 0.0525195532539 xhk_2_4 - 0.0525195532539 xhk_2_5 - 0.0557794265326 xhk_3_0
 - 0.0557794265326 xhk_3_1 - 0.0557794265326 xhk_3_2 - 0.0557794265326 xhk_3_3
 - 0.0557794265326 xhk_3_4 - 0.0557794265326 xhk_3_5 - 0.0328084899934 xhk_4_0
 - 0.0328084899934 xhk_4_1 - 0.0328084899934 xhk_4_2 - 0.0328084899934 xhk_4_3
 - 0.0328084899934 xhk_4_4 - 0.0328084899934 xhk_4_5 - 0.0563117599868 xhk_5_0
 - 0.0563117599868 xhk_5_1 - 0.0563117599868 xhk_5_2 - 0.0563117599868 xhk_5_3
 - 0.0563117599868 xhk_5_4 - 0.0563117599868 xhk_5_5 - 0.0357831977231 xhk_6_0
 - 0.0357831977231 xhk_6_1 - 0.0357831977231 xhk_6_2 - 0.0357831977231 xhk_6_3
 - 0.0357831977231 xhk_6_4 - 0.0357831977231 xhk_6_5 - 0.0561833657631 xhk_7_0
 - 0.0561833657631 xhk_7_1 - 0.0561833657631 xhk_7_2 - 0.0561833657631 xhk_7_3
 - 0.0561833657631 xhk_7_4 - 0.0561833657631 xhk_7_5 - 0.0964590694873 xhk_8_0
 - 0.0964590694873 xhk_8_1 - 0.0964590694873 xhk_8_2 - 0.0964590694873 xhk_8_3
 - 0.0964590694873 xhk_8_4 - 0.0964590694873 xhk_8_5 - 0.0532654987591 xhk_9_0
 - 0.0532654987591 xhk_9_1 - 0.0532654987591 xhk_9_2 - 0.0532654987591 xhk_9_3
 - 0.0532654987591 xhk_9_4 - 0.0532654987591 xhk_9_5 + z >= 0
_C45: - 0.116444968736 xhk_0_6 - 0.116444968736 xhk_0_7
 - 0.116444968736 xhk_0_8 - 0.086050278836 xhk_10_6 - 0.086050278836 xhk_10_7
 - 0.086050278836 xhk_10_8 - 0.122103425456 xhk_11_6 - 0.122103425456 xhk_11_7
 - 0.122103425456 xhk_11_8 - 0.193895057496 xhk_12_6 - 0.193895057496 xhk_12_7
 - 0.193895057496 xhk_12_8 - 0.069141776935 xhk_13_6 - 0.069141776935 xhk_13_7
 - 0.069141776935 xhk_13_8 - 0.0921618467145 xhk_14_6
 - 0.0921618467145 xhk_14_7 - 0.0921618467145 xhk_14_8
 - 0.144450897379 xhk_15_6 - 0.144450897379 xhk_15_7 - 0.144450897379 xhk_15_8
 - 0.12504880585 xhk_16_6 - 0.12504880585 xhk_16_7 - 0.12504880585 xhk_16_8
 - 0.14112684376 xhk_17_6 - 0.14112684376 xhk_17_7 - 0.14112684376 xhk_17_8
 - 0.120676047367 xhk_1_6 - 0.120676047367 xhk_1_7 - 0.120676047367 xhk_1_8
 - 0.108095242299 xhk_2_6 - 0.108095242299 xhk_2_7 - 0.108095242299 xhk_2_8
 - 0.114804682309 xhk_3_6 - 0.114804682309 xhk_3_7 - 0.114804682309 xhk_3_8
 - 0.0675261203794 xhk_4_6 - 0.0675261203794 xhk_4_7 - 0.0675261203794 xhk_4_8
 - 0.115900325934 xhk_5_6 - 0.115900325934 xhk_5_7 - 0.115900325934 xhk_5_8
 - 0.0736486353835 xhk_6_6 - 0.0736486353835 xhk_6_7 - 0.0736486353835 xhk_6_8
 - 0.115636066171 xhk_7_6 - 0.115636066171 xhk_7_7 - 0.115636066171 xhk_7_8
 - 0.198531134447 xhk_8_6 - 0.198531134447 xhk_8_7 - 0.198531134447 xhk_8_8
 - 0.109630540205 xhk_9_6 - 0.109630540205 xhk_9_7 - 0.109630540205 xhk_9_8
 + z >= 0
_C46: - 0.106368972663 xhk_0_10 - 0.106368972663 xhk_0_11
 - 0.106368972663 xhk_0_12 - 0.106368972663 xhk_0_9
 - 0.0786043386548 xhk_10_10 - 0.0786043386548 xhk_10_11
 - 0.0786043386548 xhk_10_12 - 0.0786043386548 xhk_10_9
 - 0.111537802495 xhk_11_10 - 0.111537802495 xhk_11_11
 - 0.111537802495 xhk_11_12 - 0.111537802495 xhk_11_9
 - 0.177117296644 xhk_12_10 - 0.177117296644 xhk_12_11
 - 0.177117296644 xhk_12_12 - 0.177117296644 xhk_12_9
 - 0.0631589313005 xhk_13_10 - 0.0631589313005 xhk_13_11
 - 0.0631589313005 xhk_13_12 - 0.0631589313005 xhk_13_9
 - 0.0841870718862 xhk_14_10 - 0.0841870718862 xhk_14_11
 - 0.0841870718862 xhk_14_12 - 0.0841870718862 xhk_14_9
 - 0.131951545192 xhk_15_10 - 0.131951545192 xhk_15_11
 - 0.131951545192 xhk_15_12 - 0.131951545192 xhk_15_9
 - 0.114228318797 xhk_16_10 - 0.114228318797 xhk_16_11
 - 0.114228318797 xhk_16_12 - 0.114228318797 xhk_16_9
 - 0.128915122301 xhk_17_10 - 0.128915122301 xhk_17_11
 - 0.128915122301 xhk_17_12 - 0.128915122301 xhk_17_9
 - 0.110233935591 xhk_1_10 - 0.110233935591 xhk_1_11 - 0.110233935591 xhk_1_12
 - 0.110233935591 xhk_1_9 - 0.0987417489817 xhk_2_10
 - 0.0987417489817 xhk_2_11 - 0.0987417489817 xhk_2_12
 - 0.0987417489817 xhk_2_9 - 0.104870620403 xhk_3_10 - 0.104870620403 xhk_3_11
 - 0.104870620403 xhk_3_12 - 0.104870620403 xhk_3_9 - 0.061683077686 xhk_4_10
 - 0.061683077686 xhk_4_11 - 0.061683077686 xhk_4_12 - 0.061683077686 xhk_4_9
 - 0.105871457863 xhk_5_10 - 0.105871457863 xhk_5_11 - 0.105871457863 xhk_5_12
 - 0.105871457863 xhk_5_9 - 0.0672758107871 xhk_6_10
 - 0.0672758107871 xhk_6_11 - 0.0672758107871 xhk_6_12
 - 0.0672758107871 xhk_6_9 - 0.105630064527 xhk_7_10 - 0.105630064527 xhk_7_11
 - 0.105630064527 xhk_7_12 - 0.105630064527 xhk_7_9 - 0.181352213342 xhk_8_10
 - 0.181352213342 xhk_8_11 - 0.181352213342 xhk_8_12 - 0.181352213342 xhk_8_9
 - 0.100144197389 xhk_9_10 - 0.100144197389 xhk_9_11 - 0.100144197389 xhk_9_12
 - 0.100144197389 xhk_9_9 + z >= 0
_C5: xhk_4_0 + xhk_4_1 + xhk_4_10 + xhk_4_11 + xhk_4_12 + xhk_4_2 + xhk_4_3
 + xhk_4_4 + xhk_4_5 + xhk_4_6 + xhk_4_7 + xhk_4_8 + xhk_4_9 = 1
_C6: xhk_5_0 + xhk_5_1 + xhk_5_10 + xhk_5_11 + xhk_5_12 + xhk_5_2 + xhk_5_3
 + xhk_5_4 + xhk_5_5 + xhk_5_6 + xhk_5_7 + xhk_5_8 + xhk_5_9 = 1
_C7: xhk_6_0 + xhk_6_1 + xhk_6_10 + xhk_6_11 + xhk_6_12 + xhk_6_2 + xhk_6_3
 + xhk_6_4 + xhk_6_5 + xhk_6_6 + xhk_6_7 + xhk_6_8 + xhk_6_9 = 1
_C8: xhk_7_0 + xhk_7_1 + xhk_7_10 + xhk_7_11 + xhk_7_12 + xhk_7_2 + xhk_7_3
 + xhk_7_4 + xhk_7_5 + xhk_7_6 + xhk_7_7 + xhk_7_8 + xhk_7_9 = 1
_C9: xhk_8_0 + xhk_8_1 + xhk_8_10 + xhk_8_11 + xhk_8_12 + xhk_8_2 + xhk_8_3
 + xhk_8_4 + xhk_8_5 + xhk_8_6 + xhk_8_7 + xhk_8_8 + xhk_8_9 = 1
Bounds
z <= 1
Binaries
xhk_0_0
xhk_0_1
xhk_0_10
xhk_0_11
xhk_0_12
xhk_0_2
xhk_0_3
xhk_0_4
xhk_0_5
xhk_0_6
xhk_0_7
xhk_0_8
xhk_0_9
xhk_10_0
xhk_10_1
xhk_10_10
xhk_10_11
xhk_10_12
xhk_10_2
xhk_10_3
xhk_10_4
xhk_10_5
xhk_10_6
xhk_10_7
xhk_10_8
xhk_10_9
xhk_11_0
xhk_11_1
xhk_11_10
xhk_11_11
xhk_11_12
xhk_11_2
xhk_11_3
xhk_11_4
xhk_11_5
xhk_11_6
xhk_11_7
xhk_11_8
xhk_11_9
xhk_12_0
xhk_12_1
xhk_12_10
xhk_12_11
xhk_12_12
xhk_12_2
xhk_12_3
xhk_12_4
xhk_12_5
xhk_12_6
xhk_12_7
xhk_12_8
xhk_12_9
xhk_13_0
xhk_13_1
xhk_13_10
xhk_13_11
xhk_13_12
xhk_13_2
xhk_13_3
xhk_13_4
xhk_13_5
xhk_13_6
xhk_13_7
xhk_13_8
xhk_13_9
xhk_14_0
xhk_14_1
xhk_14_10
xhk_14_11
xhk_14_12
xhk_14_2
xhk_14_3
xhk_14_4
xhk_14_5
xhk_14_6
xhk_14_7
xhk_14_8
xhk_14_9
xhk_15_0
xhk_15_1
xhk_15_10
xhk_15_11
xhk_15_12
xhk_15_2
xhk_15_3
xhk_15_4
xhk_15_5
xhk_15_6
xhk_15_7
xhk_15_8
xhk_15_9
xhk_16_0
xhk_16_1
xhk_16_10
xhk_16_11
xhk_16_12
xhk_16_2
xhk_16_3
xhk_16_4
xhk_16_5
xhk_16_6
xhk_16_7
xhk_16_8
xhk_16_9
xhk_17_0
xhk_17_1
xhk_17_10
xhk_17_11
xhk_17_12
xhk_17_2
xhk_17_3
xhk_17_4
xhk_17_5
xhk_17_6
xhk_17_7
xhk_17_8
xhk_17_9
xhk_1_0
xhk_1_1
xhk_1_10
xhk_1_11
xhk_1_12
xhk_1_2
xhk_1_3
xhk_1_4
xhk_1_5
xhk_1_6
xhk_1_7
xhk_1_8
xhk_1_9
xhk_2_0
xhk_2_1
xhk_2_10
xhk_2_11
xhk_2_12
xhk_2_2
xhk_2_3
xhk_2_4
xhk_2_5
xhk_2_6
xhk_2_7
xhk_2_8
xhk_2_9
xhk_3_0
xhk_3_1
xhk_3_10
xhk_3_11
xhk_3_12
xhk_3_2
xhk_3_3
xhk_3_4
xhk_3_5
xhk_3_6
xhk_3_7
xhk_3_8
xhk_3_9
xhk_4_0
xhk_4_1
xhk_4_10
xhk_4_11
xhk_4_12
xhk_4_2
xhk_4_3
xhk_4_4
xhk_4_5
xhk_4_6
xhk_4_7
xhk_4_8
xhk_4_9
xhk_5_0
xhk_5_1
xhk_5_10
xhk_5_11
xhk_5_12
xhk_5_2
xhk_5_3
xhk_5_4
xhk_5_5
xhk_5_6
xhk_5_7
xhk_5_8
xhk_5_9
xhk_6_0
xhk_6_1
xhk_6_10
xhk_6_11
xhk_6_12
xhk_6_2
xhk_6_3
xhk_6_4
xhk_6_5
xhk_6_6
xhk_6_7
xhk_6_8
xhk_6_9
xhk_7_0
xhk_7_1
xhk_7_10
xhk_7_11
xhk_7_12
xhk_7_2
xhk_7_3
xhk_7_4
xhk_7_5
xhk_7_6
xhk_7_7
xhk_7_8
xhk_7_9
xhk_8_0
xhk_8_1
xhk_8_10
xhk_8_11
xhk_8_12
xhk_8_2
xhk_8_3
xhk_8_4
xhk_8_5
xhk_8_6
xhk_8_7
xhk_8_8
xhk_8_9
xhk_9_0
xhk_9_1
xhk_9_10
xhk_9_11
xhk_9_12
xhk_9_2
xhk_9_3
xhk_9_4
xhk_9_5
xhk_9_6
xhk_9_7
xhk_9_8
xhk_9_9
xtc_0_0
xtc_0_1
xtc_0_2
xtc_1_0
xtc_1_1
xtc_1_2
xtc_2_0
xtc_2_1
xtc_2_2
xtc_3_0
xtc_3_1
xtc_3_2
End
