lab3/P3b-pulp.sol
Problem:    
Rows:       46
Columns:    247 (246 integer, 246 binary)
Non-zeros:  951
Status:     INTEGER NON-OPTIMAL
Objective:  OBJ = 0.655045624 (MINimum)

   No.   Row name        Activity     Lower bound   Upper bound
------ ------------    ------------- ------------- -------------
     1 _C1                         1             1             = 
     2 _C10                        1             1             = 
     3 _C11                        1             1             = 
     4 _C12                        1             1             = 
     5 _C13                        1             1             = 
     6 _C14                        1             1             = 
     7 _C15                        1             1             = 
     8 _C16                        1             1             = 
     9 _C17                        1             1             = 
    10 _C18                        1             1             = 
    11 _C19                        0             0             = 
    12 _C2                         1             1             = 
    13 _C20                        0             0             = 
    14 _C21                        0             0             = 
    15 _C22                        0             0             = 
    16 _C23                        0             0             = 
    17 _C24                        0             0             = 
    18 _C25                        0             0             = 
    19 _C26                        0             0             = 
    20 _C27                        0             0             = 
    21 _C28                        0             0             = 
    22 _C29                        0             0             = 
    23 _C3                         1             1             = 
    24 _C30                        0             0             = 
    25 _C31                  523.948                     618.284 
    26 _C32                  569.559                     618.284 
    27 _C33                  561.121                     618.284 
    28 _C34                  514.728                     618.284 
    29 _C35                  225.389                     618.284 
    30 _C36                        0                     618.284 
    31 _C37                        0                     600.803 
    32 _C38                  124.622                     600.803 
    33 _C39                        0                     600.803 
    34 _C4                         1             1             = 
    35 _C40                  254.455                     493.287 
    36 _C41                  401.757                     493.287 
    37 _C42                  418.781                     493.287 
    38 _C43                  217.508                     493.287 
    39 _C44               0.00951017             0               
    40 _C45                 0.585904             0               
    41 _C46                        0             0               
    42 _C5                         1             1             = 
    43 _C6                         1             1             = 
    44 _C7                         1             1             = 
    45 _C8                         1             1             = 
    46 _C9                         1             1             = 

   No. Column name       Activity     Lower bound   Upper bound
------ ------------    ------------- ------------- -------------
     1 z                    0.655046             0             1 
     2 xhk_0_0      *              0             0             1 
     3 xhk_0_1      *              0             0             1 
     4 xhk_0_10     *              0             0             1 
     5 xhk_0_11     *              1             0             1 
     6 xhk_0_12     *              0             0             1 
     7 xhk_0_2      *              0             0             1 
     8 xhk_0_3      *              0             0             1 
     9 xhk_0_4      *              0             0             1 
    10 xhk_0_5      *              0             0             1 
    11 xhk_0_6      *              0             0             1 
    12 xhk_0_7      *              0             0             1 
    13 xhk_0_8      *              0             0             1 
    14 xhk_0_9      *              0             0             1 
    15 xhk_9_0      *              0             0             1 
    16 xhk_9_1      *              0             0             1 
    17 xhk_9_10     *              0             0             1 
    18 xhk_9_11     *              0             0             1 
    19 xhk_9_12     *              0             0             1 
    20 xhk_9_2      *              1             0             1 
    21 xhk_9_3      *              0             0             1 
    22 xhk_9_4      *              0             0             1 
    23 xhk_9_5      *              0             0             1 
    24 xhk_9_6      *              0             0             1 
    25 xhk_9_7      *              0             0             1 
    26 xhk_9_8      *              0             0             1 
    27 xhk_9_9      *              0             0             1 
    28 xhk_10_0     *              0             0             1 
    29 xhk_10_1     *              0             0             1 
    30 xhk_10_10    *              0             0             1 
    31 xhk_10_11    *              0             0             1 
    32 xhk_10_12    *              0             0             1 
    33 xhk_10_2     *              1             0             1 
    34 xhk_10_3     *              0             0             1 
    35 xhk_10_4     *              0             0             1 
    36 xhk_10_5     *              0             0             1 
    37 xhk_10_6     *              0             0             1 
    38 xhk_10_7     *              0             0             1 
    39 xhk_10_8     *              0             0             1 
    40 xhk_10_9     *              0             0             1 
    41 xhk_11_0     *              0             0             1 
    42 xhk_11_1     *              1             0             1 
    43 xhk_11_10    *              0             0             1 
    44 xhk_11_11    *              0             0             1 
    45 xhk_11_12    *              0             0             1 
    46 xhk_11_2     *              0             0             1 
    47 xhk_11_3     *              0             0             1 
    48 xhk_11_4     *              0             0             1 
    49 xhk_11_5     *              0             0             1 
    50 xhk_11_6     *              0             0             1 
    51 xhk_11_7     *              0             0             1 
    52 xhk_11_8     *              0             0             1 
    53 xhk_11_9     *              0             0             1 
    54 xhk_12_0     *              0             0             1 
    55 xhk_12_1     *              1             0             1 
    56 xhk_12_10    *              0             0             1 
    57 xhk_12_11    *              0             0             1 
    58 xhk_12_12    *              0             0             1 
    59 xhk_12_2     *              0             0             1 
    60 xhk_12_3     *              0             0             1 
    61 xhk_12_4     *              0             0             1 
    62 xhk_12_5     *              0             0             1 
    63 xhk_12_6     *              0             0             1 
    64 xhk_12_7     *              0             0             1 
    65 xhk_12_8     *              0             0             1 
    66 xhk_12_9     *              0             0             1 
    67 xhk_13_0     *              0             0             1 
    68 xhk_13_1     *              0             0             1 
    69 xhk_13_10    *              0             0             1 
    70 xhk_13_11    *              0             0             1 
    71 xhk_13_12    *              0             0             1 
    72 xhk_13_2     *              0             0             1 
    73 xhk_13_3     *              0             0             1 
    74 xhk_13_4     *              0             0             1 
    75 xhk_13_5     *              0             0             1 
    76 xhk_13_6     *              0             0             1 
    77 xhk_13_7     *              1             0             1 
    78 xhk_13_8     *              0             0             1 
    79 xhk_13_9     *              0             0             1 
    80 xhk_14_0     *              1             0             1 
    81 xhk_14_1     *              0             0             1 
    82 xhk_14_10    *              0             0             1 
    83 xhk_14_11    *              0             0             1 
    84 xhk_14_12    *              0             0             1 
    85 xhk_14_2     *              0             0             1 
    86 xhk_14_3     *              0             0             1 
    87 xhk_14_4     *              0             0             1 
    88 xhk_14_5     *              0             0             1 
    89 xhk_14_6     *              0             0             1 
    90 xhk_14_7     *              0             0             1 
    91 xhk_14_8     *              0             0             1 
    92 xhk_14_9     *              0             0             1 
    93 xhk_15_0     *              0             0             1 
    94 xhk_15_1     *              0             0             1 
    95 xhk_15_10    *              0             0             1 
    96 xhk_15_11    *              0             0             1 
    97 xhk_15_12    *              0             0             1 
    98 xhk_15_2     *              0             0             1 
    99 xhk_15_3     *              1             0             1 
   100 xhk_15_4     *              0             0             1 
   101 xhk_15_5     *              0             0             1 
   102 xhk_15_6     *              0             0             1 
   103 xhk_15_7     *              0             0             1 
   104 xhk_15_8     *              0             0             1 
   105 xhk_15_9     *              0             0             1 
   106 xhk_16_0     *              0             0             1 
   107 xhk_16_1     *              0             0             1 
   108 xhk_16_10    *              0             0             1 
   109 xhk_16_11    *              0             0             1 
   110 xhk_16_12    *              0             0             1 
   111 xhk_16_2     *              0             0             1 
   112 xhk_16_3     *              0             0             1 
   113 xhk_16_4     *              1             0             1 
   114 xhk_16_5     *              0             0             1 
   115 xhk_16_6     *              0             0             1 
   116 xhk_16_7     *              0             0             1 
   117 xhk_16_8     *              0             0             1 
   118 xhk_16_9     *              0             0             1 
   119 xhk_17_0     *              0             0             1 
   120 xhk_17_1     *              0             0             1 
   121 xhk_17_10    *              0             0             1 
   122 xhk_17_11    *              0             0             1 
   123 xhk_17_12    *              0             0             1 
   124 xhk_17_2     *              0             0             1 
   125 xhk_17_3     *              1             0             1 
   126 xhk_17_4     *              0             0             1 
   127 xhk_17_5     *              0             0             1 
   128 xhk_17_6     *              0             0             1 
   129 xhk_17_7     *              0             0             1 
   130 xhk_17_8     *              0             0             1 
   131 xhk_17_9     *              0             0             1 
   132 xhk_1_0      *              0             0             1 
   133 xhk_1_1      *              0             0             1 
   134 xhk_1_2      *              0             0             1 
   135 xhk_1_3      *              0             0             1 
   136 xhk_1_4      *              0             0             1 
   137 xhk_1_5      *              0             0             1 
   138 xhk_2_0      *              0             0             1 
   139 xhk_2_1      *              0             0             1 
   140 xhk_2_2      *              0             0             1 
   141 xhk_2_3      *              0             0             1 
   142 xhk_2_4      *              0             0             1 
   143 xhk_2_5      *              0             0             1 
   144 xhk_3_0      *              0             0             1 
   145 xhk_3_1      *              0             0             1 
   146 xhk_3_2      *              0             0             1 
   147 xhk_3_3      *              0             0             1 
   148 xhk_3_4      *              0             0             1 
   149 xhk_3_5      *              0             0             1 
   150 xhk_4_0      *              0             0             1 
   151 xhk_4_1      *              0             0             1 
   152 xhk_4_2      *              0             0             1 
   153 xhk_4_3      *              0             0             1 
   154 xhk_4_4      *              0             0             1 
   155 xhk_4_5      *              0             0             1 
   156 xhk_5_0      *              0             0             1 
   157 xhk_5_1      *              0             0             1 
   158 xhk_5_2      *              0             0             1 
   159 xhk_5_3      *              0             0             1 
   160 xhk_5_4      *              0             0             1 
   161 xhk_5_5      *              0             0             1 
   162 xhk_6_0      *              0             0             1 
   163 xhk_6_1      *              0             0             1 
   164 xhk_6_2      *              0             0             1 
   165 xhk_6_3      *              0             0             1 
   166 xhk_6_4      *              0             0             1 
   167 xhk_6_5      *              0             0             1 
   168 xtc_0_0      *              0             0             1 
   169 xhk_1_10     *              0             0             1 
   170 xhk_1_11     *              0             0             1 
   171 xhk_1_12     *              1             0             1 
   172 xhk_1_6      *              0             0             1 
   173 xhk_1_7      *              0             0             1 
   174 xhk_1_8      *              0             0             1 
   175 xhk_1_9      *              0             0             1 
   176 xhk_2_6      *              0             0             1 
   177 xhk_2_7      *              0             0             1 
   178 xhk_2_8      *              0             0             1 
   179 xhk_3_6      *              0             0             1 
   180 xhk_3_7      *              0             0             1 
   181 xhk_3_8      *              0             0             1 
   182 xhk_4_6      *              0             0             1 
   183 xhk_4_7      *              0             0             1 
   184 xhk_4_8      *              0             0             1 
   185 xhk_5_6      *              0             0             1 
   186 xhk_5_7      *              0             0             1 
   187 xhk_5_8      *              0             0             1 
   188 xhk_6_6      *              0             0             1 
   189 xhk_6_7      *              0             0             1 
   190 xhk_6_8      *              0             0             1 
   191 xtc_0_1      *              0             0             1 
   192 xhk_2_10     *              1             0             1 
   193 xhk_2_11     *              0             0             1 
   194 xhk_2_12     *              0             0             1 
   195 xhk_2_9      *              0             0             1 
   196 xhk_3_10     *              1             0             1 
   197 xhk_3_11     *              0             0             1 
   198 xhk_3_12     *              0             0             1 
   199 xhk_3_9      *              0             0             1 
   200 xhk_4_10     *              0             0             1 
   201 xhk_4_11     *              0             0             1 
   202 xhk_4_12     *              0             0             1 
   203 xhk_4_9      *              1             0             1 
   204 xhk_5_10     *              0             0             1 
   205 xhk_5_11     *              1             0             1 
   206 xhk_5_12     *              0             0             1 
   207 xhk_5_9      *              0             0             1 
   208 xhk_6_10     *              0             0             1 
   209 xhk_6_11     *              0             0             1 
   210 xhk_6_12     *              0             0             1 
   211 xhk_6_9      *              1             0             1 
   212 xtc_0_2      *              1             0             1 
   213 xhk_7_0      *              0             0             1 
   214 xhk_7_1      *              0             0             1 
   215 xhk_7_2      *              1             0             1 
   216 xhk_7_3      *              0             0             1 
   217 xhk_7_4      *              0             0             1 
   218 xhk_7_5      *              0             0             1 
   219 xhk_8_0      *              1             0             1 
   220 xhk_8_1      *              0             0             1 
   221 xhk_8_2      *              0             0             1 
   222 xhk_8_3      *              0             0             1 
   223 xhk_8_4      *              0             0             1 
   224 xhk_8_5      *              0             0             1 
   225 xtc_1_0      *              1             0             1 
   226 xhk_7_6      *              0             0             1 
   227 xhk_7_7      *              0             0             1 
   228 xhk_7_8      *              0             0             1 
   229 xhk_8_6      *              0             0             1 
   230 xhk_8_7      *              0             0             1 
   231 xhk_8_8      *              0             0             1 
   232 xtc_1_1      *              0             0             1 
   233 xhk_7_10     *              0             0             1 
   234 xhk_7_11     *              0             0             1 
   235 xhk_7_12     *              0             0             1 
   236 xhk_7_9      *              0             0             1 
   237 xhk_8_10     *              0             0             1 
   238 xhk_8_11     *              0             0             1 
   239 xhk_8_12     *              0             0             1 
   240 xhk_8_9      *              0             0             1 
   241 xtc_1_2      *              0             0             1 
   242 xtc_2_0      *              0             0             1 
   243 xtc_2_1      *              1             0             1 
   244 xtc_2_2      *              0             0             1 
   245 xtc_3_0      *              1             0             1 
   246 xtc_3_1      *              0             0             1 
   247 xtc_3_2      *              0             0             1 

Integer feasibility conditions:

KKT.PE: max.abs.err = 1.11e-16 on row 41
        max.rel.err = 4.81e-17 on row 41
        High quality

KKT.PB: max.abs.err = 6.94e-17 on row 41
        max.rel.err = 6.94e-17 on row 41
        High quality

End of output
